p cnf 200 1110
-101 -97 0
-101 -62 0
-101 -82 0
-101 31 0
-101 -80 0
-101 -72 0
-101 -24 0
-101 -35 0
-101 77 0
-101 16 0
101 97 62 82 -31 80 72 24 35 -77 -16 0
-102 -52 0
-102 -43 0
-102 -10 0
-102 -22 0
-102 97 0
-102 7 0
-102 -81 0
-102 -96 0
-102 32 0
-102 68 0
102 52 43 10 22 -97 -7 81 96 -32 -68 0
-103 -18 0
-103 -46 0
-103 79 0
-103 -16 0
-103 -63 0
-103 -37 0
-103 11 0
-103 -29 0
-103 70 0
-103 31 0
103 18 46 -79 16 63 37 -11 29 -70 -31 0
-104 -82 0
-104 66 0
-104 86 0
-104 1 0
-104 89 0
-104 72 0
-104 13 0
-104 -39 0
-104 -79 0
-104 94 0
104 82 -66 -86 -1 -89 -72 -13 39 79 -94 0
-105 -47 0
-105 71 0
-105 -20 0
-105 -89 0
-105 56 0
-105 -82 0
-105 55 0
-105 -72 0
-105 -74 0
-105 -53 0
105 47 -71 20 89 -56 82 -55 72 74 53 0
-106 12 0
-106 -44 0
-106 -85 0
-106 -65 0
-106 -62 0
-106 -16 0
-106 100 0
-106 39 0
-106 37 0
-106 -70 0
106 -12 44 85 65 62 16 -100 -39 -37 70 0
-107 38 0
-107 -84 0
-107 -83 0
-107 -52 0
-107 22 0
-107 -1 0
-107 71 0
-107 -4 0
-107 34 0
-107 39 0
107 -38 84 83 52 -22 1 -71 4 -34 -39 0
-108 -25 0
-108 -12 0
-108 80 0
-108 4 0
-108 87 0
-108 -86 0
-108 -24 0
-108 -79 0
-108 35 0
-108 -91 0
108 25 12 -80 -4 -87 86 24 79 -35 91 0
-109 -31 0
-109 92 0
-109 -42 0
-109 8 0
-109 -76 0
-109 -97 0
-109 38 0
-109 4 0
-109 18 0
-109 -50 0
109 31 -92 42 -8 76 97 -38 -4 -18 50 0
-110 36 0
-110 55 0
-110 92 0
-110 -93 0
-110 -67 0
-110 25 0
-110 -63 0
-110 -22 0
-110 -30 0
-110 -47 0
110 -36 -55 -92 93 67 -25 63 22 30 47 0
101 102 103 104 105 106 107 108 109 110 0
-111 59 0
-111 -47 0
-111 -61 0
-111 -17 0
-111 -50 0
-111 45 0
-111 -32 0
-111 48 0
-111 36 0
-111 -39 0
111 -59 47 61 17 50 -45 32 -48 -36 39 0
-112 31 0
-112 -96 0
-112 97 0
-112 -7 0
-112 1 0
-112 -79 0
-112 -75 0
-112 -93 0
-112 -30 0
-112 59 0
112 -31 96 -97 7 -1 79 75 93 30 -59 0
-113 -21 0
-113 -34 0
-113 -79 0
-113 -14 0
-113 28 0
-113 -87 0
-113 12 0
-113 6 0
-113 -81 0
-113 -2 0
113 21 34 79 14 -28 87 -12 -6 81 2 0
-114 -37 0
-114 9 0
-114 -20 0
-114 -55 0
-114 -96 0
-114 77 0
-114 54 0
-114 -92 0
-114 -90 0
-114 -45 0
114 37 -9 20 55 96 -77 -54 92 90 45 0
-115 3 0
-115 -25 0
-115 -89 0
-115 -50 0
-115 -88 0
-115 -13 0
-115 58 0
-115 -18 0
-115 -46 0
-115 54 0
115 -3 25 89 50 88 13 -58 18 46 -54 0
-116 -32 0
-116 68 0
-116 -1 0
-116 -48 0
-116 -11 0
-116 98 0
-116 -33 0
-116 -42 0
-116 -65 0
-116 61 0
116 32 -68 1 48 11 -98 33 42 65 -61 0
-117 -52 0
-117 -66 0
-117 48 0
-117 -8 0
-117 -97 0
-117 -53 0
-117 -49 0
-117 100 0
-117 -78 0
-117 -9 0
117 52 66 -48 8 97 53 49 -100 78 9 0
-118 10 0
-118 53 0
-118 7 0
-118 -33 0
-118 13 0
-118 14 0
-118 43 0
-118 -15 0
-118 50 0
-118 -29 0
118 -10 -53 -7 33 -13 -14 -43 15 -50 29 0
-119 30 0
-119 33 0
-119 96 0
-119 5 0
-119 37 0
-119 63 0
-119 -20 0
-119 -85 0
-119 91 0
-119 2 0
119 -30 -33 -96 -5 -37 -63 20 85 -91 -2 0
-120 44 0
-120 -39 0
-120 -95 0
-120 43 0
-120 -21 0
-120 38 0
-120 15 0
-120 -80 0
-120 5 0
-120 10 0
120 -44 39 95 -43 21 -38 -15 80 -5 -10 0
111 112 113 114 115 116 117 118 119 120 0
-121 23 0
-121 45 0
-121 -53 0
-121 -31 0
-121 -93 0
-121 91 0
-121 87 0
-121 -9 0
-121 -1 0
-121 49 0
121 -23 -45 53 31 93 -91 -87 9 1 -49 0
-122 93 0
-122 -14 0
-122 38 0
-122 -6 0
-122 -33 0
-122 -71 0
-122 -27 0
-122 87 0
-122 60 0
-122 10 0
122 -93 14 -38 6 33 71 27 -87 -60 -10 0
-123 -46 0
-123 29 0
-123 76 0
-123 25 0
-123 54 0
-123 39 0
-123 38 0
-123 -75 0
-123 65 0
-123 -79 0
123 46 -29 -76 -25 -54 -39 -38 75 -65 79 0
-124 84 0
-124 80 0
-124 -7 0
-124 77 0
-124 -95 0
-124 -37 0
-124 81 0
-124 -31 0
-124 78 0
-124 97 0
124 -84 -80 7 -77 95 37 -81 31 -78 -97 0
-125 18 0
-125 13 0
-125 -57 0
-125 -97 0
-125 -60 0
-125 -11 0
-125 -63 0
-125 88 0
-125 35 0
-125 -26 0
125 -18 -13 57 97 60 11 63 -88 -35 26 0
-126 79 0
-126 59 0
-126 -36 0
-126 90 0
-126 -62 0
-126 -58 0
-126 -15 0
-126 78 0
-126 39 0
-126 -25 0
126 -79 -59 36 -90 62 58 15 -78 -39 25 0
-127 -30 0
-127 -21 0
-127 -65 0
-127 72 0
-127 -67 0
-127 -50 0
-127 48 0
-127 66 0
-127 81 0
-127 77 0
127 30 21 65 -72 67 50 -48 -66 -81 -77 0
-128 -75 0
-128 48 0
-128 51 0
-128 87 0
-128 -95 0
-128 -59 0
-128 2 0
-128 -85 0
-128 70 0
-128 -50 0
128 75 -48 -51 -87 95 59 -2 85 -70 50 0
-129 -79 0
-129 77 0
-129 49 0
-129 8 0
-129 -43 0
-129 76 0
-129 -74 0
-129 35 0
-129 32 0
-129 18 0
129 79 -77 -49 -8 43 -76 74 -35 -32 -18 0
-130 -98 0
-130 -86 0
-130 -62 0
-130 96 0
-130 11 0
-130 58 0
-130 -35 0
-130 -88 0
-130 31 0
-130 54 0
130 98 86 62 -96 -11 -58 35 88 -31 -54 0
121 122 123 124 125 126 127 128 129 130 0
-131 70 0
-131 53 0
-131 7 0
-131 -62 0
-131 45 0
-131 32 0
-131 79 0
-131 66 0
-131 8 0
-131 99 0
131 -70 -53 -7 62 -45 -32 -79 -66 -8 -99 0
-132 96 0
-132 60 0
-132 -35 0
-132 61 0
-132 86 0
-132 69 0
-132 83 0
-132 93 0
-132 -5 0
-132 75 0
132 -96 -60 35 -61 -86 -69 -83 -93 5 -75 0
-133 100 0
-133 -20 0
-133 71 0
-133 -48 0
-133 31 0
-133 91 0
-133 -41 0
-133 -11 0
-133 -21 0
-133 49 0
133 -100 20 -71 48 -31 -91 41 11 21 -49 0
-134 -18 0
-134 37 0
-134 97 0
-134 -87 0
-134 -82 0
-134 34 0
-134 30 0
-134 -50 0
-134 -43 0
-134 1 0
134 18 -37 -97 87 82 -34 -30 50 43 -1 0
-135 -62 0
-135 -54 0
-135 -79 0
-135 -30 0
-135 -92 0
-135 -98 0
-135 23 0
-135 71 0
-135 90 0
-135 85 0
135 62 54 79 30 92 98 -23 -71 -90 -85 0
-136 -89 0
-136 -54 0
-136 91 0
-136 -75 0
-136 90 0
-136 72 0
-136 -70 0
-136 45 0
-136 -80 0
-136 33 0
136 89 54 -91 75 -90 -72 70 -45 80 -33 0
-137 -8 0
-137 -79 0
-137 -62 0
-137 97 0
-137 65 0
-137 45 0
-137 14 0
-137 28 0
-137 -67 0
-137 -81 0
137 8 79 62 -97 -65 -45 -14 -28 67 81 0
-138 -33 0
-138 55 0
-138 -41 0
-138 -11 0
-138 79 0
-138 -84 0
-138 -61 0
-138 81 0
-138 6 0
-138 -45 0
138 33 -55 41 11 -79 84 61 -81 -6 45 0
-139 14 0
-139 78 0
-139 83 0
-139 96 0
-139 74 0
-139 -66 0
-139 -28 0
-139 44 0
-139 93 0
-139 -20 0
139 -14 -78 -83 -96 -74 66 28 -44 -93 20 0
-140 18 0
-140 -46 0
-140 -7 0
-140 -54 0
-140 -36 0
-140 1 0
-140 37 0
-140 56 0
-140 25 0
-140 -74 0
140 -18 46 7 54 36 -1 -37 -56 -25 74 0
131 132 133 134 135 136 137 138 139 140 0
-141 77 0
-141 -21 0
-141 -58 0
-141 -3 0
-141 -35 0
-141 59 0
-141 55 0
-141 -8 0
-141 -90 0
-141 11 0
141 -77 21 58 3 35 -59 -55 8 90 -11 0
-142 -93 0
-142 37 0
-142 -60 0
-142 14 0
-142 69 0
-142 -15 0
-142 -82 0
-142 53 0
-142 -45 0
-142 -5 0
142 93 -37 60 -14 -69 15 82 -53 45 5 0
-143 -83 0
-143 33 0
-143 -34 0
-143 97 0
-143 -65 0
-143 -39 0
-143 -23 0
-143 37 0
-143 -24 0
-143 -61 0
143 83 -33 34 -97 65 39 23 -37 24 61 0
-144 20 0
-144 -3 0
-144 -100 0
-144 83 0
-144 -14 0
-144 -5 0
-144 -79 0
-144 -29 0
-144 -1 0
-144 61 0
144 -20 3 100 -83 14 5 79 29 1 -61 0
-145 -84 0
-145 35 0
-145 1 0
-145 82 0
-145 77 0
-145 68 0
-145 -96 0
-145 40 0
-145 -65 0
-145 93 0
145 84 -35 -1 -82 -77 -68 96 -40 65 -93 0
-146 -34 0
-146 75 0
-146 66 0
-146 28 0
-146 -71 0
-146 -32 0
-146 -15 0
-146 -14 0
-146 -51 0
-146 78 0
146 34 -75 -66 -28 71 32 15 14 51 -78 0
-147 -91 0
-147 27 0
-147 -89 0
-147 22 0
-147 -32 0
-147 -74 0
-147 -13 0
-147 -59 0
-147 -52 0
-147 65 0
147 91 -27 89 -22 32 74 13 59 52 -65 0
-148 -41 0
-148 -54 0
-148 -99 0
-148 -88 0
-148 -87 0
-148 42 0
-148 22 0
-148 -31 0
-148 52 0
-148 92 0
148 41 54 99 88 87 -42 -22 31 -52 -92 0
-149 17 0
-149 -31 0
-149 -74 0
-149 12 0
-149 -85 0
-149 81 0
-149 -58 0
-149 98 0
-149 50 0
-149 -34 0
149 -17 31 74 -12 85 -81 58 -98 -50 34 0
-150 -87 0
-150 50 0
-150 -22 0
-150 -51 0
-150 -97 0
-150 -24 0
-150 -79 0
-150 58 0
-150 49 0
-150 -43 0
150 87 -50 22 51 97 24 79 -58 -49 43 0
141 142 143 144 145 146 147 148 149 150 0
-151 -13 0
-151 90 0
-151 -11 0
-151 15 0
-151 -22 0
-151 84 0
-151 1 0
-151 -4 0
-151 77 0
-151 31 0
151 13 -90 11 -15 22 -84 -1 4 -77 -31 0
-152 -11 0
-152 -24 0
-152 71 0
-152 74 0
-152 -60 0
-152 -46 0
-152 32 0
-152 51 0
-152 -96 0
-152 -10 0
152 11 24 -71 -74 60 46 -32 -51 96 10 0
-153 60 0
-153 -98 0
-153 -65 0
-153 17 0
-153 -13 0
-153 70 0
-153 77 0
-153 -59 0
-153 34 0
-153 15 0
153 -60 98 65 -17 13 -70 -77 59 -34 -15 0
-154 -25 0
-154 -71 0
-154 5 0
-154 -77 0
-154 59 0
-154 -10 0
-154 61 0
-154 -99 0
-154 81 0
-154 -89 0
154 25 71 -5 77 -59 10 -61 99 -81 89 0
-155 40 0
-155 93 0
-155 -11 0
-155 29 0
-155 90 0
-155 -96 0
-155 28 0
-155 22 0
-155 -55 0
-155 -1 0
155 -40 -93 11 -29 -90 96 -28 -22 55 1 0
-156 45 0
-156 -57 0
-156 29 0
-156 -42 0
-156 28 0
-156 -47 0
-156 -23 0
-156 15 0
-156 -65 0
-156 -84 0
156 -45 57 -29 42 -28 47 23 -15 65 84 0
-157 71 0
-157 25 0
-157 -36 0
-157 85 0
-157 -56 0
-157 34 0
-157 -13 0
-157 73 0
-157 60 0
-157 -51 0
157 -71 -25 36 -85 56 -34 13 -73 -60 51 0
-158 50 0
-158 -60 0
-158 -59 0
-158 -76 0
-158 -84 0
-158 -74 0
-158 -33 0
-158 -91 0
-158 54 0
-158 -89 0
158 -50 60 59 76 84 74 33 91 -54 89 0
-159 -35 0
-159 -49 0
-159 -56 0
-159 -94 0
-159 -34 0
-159 -38 0
-159 -4 0
-159 -32 0
-159 58 0
-159 24 0
159 35 49 56 94 34 38 4 32 -58 -24 0
-160 -40 0
-160 -65 0
-160 -36 0
-160 -77 0
-160 81 0
-160 18 0
-160 72 0
-160 -84 0
-160 93 0
-160 -86 0
160 40 65 36 77 -81 -18 -72 84 -93 86 0
151 152 153 154 155 156 157 158 159 160 0
-161 -92 0
-161 22 0
-161 -71 0
-161 -16 0
-161 -72 0
-161 32 0
-161 58 0
-161 -27 0
-161 -31 0
-161 8 0
161 92 -22 71 16 72 -32 -58 27 31 -8 0
-162 -28 0
-162 23 0
-162 58 0
-162 -39 0
-162 -79 0
-162 65 0
-162 18 0
-162 29 0
-162 -61 0
-162 -76 0
162 28 -23 -58 39 79 -65 -18 -29 61 76 0
-163 -15 0
-163 53 0
-163 -29 0
-163 -69 0
-163 -54 0
-163 94 0
-163 -100 0
-163 -95 0
-163 67 0
-163 62 0
163 15 -53 29 69 54 -94 100 95 -67 -62 0
-164 100 0
-164 -17 0
-164 72 0
-164 -95 0
-164 -2 0
-164 -90 0
-164 51 0
-164 -1 0
-164 -57 0
-164 -91 0
164 -100 17 -72 95 2 90 -51 1 57 91 0
-165 -51 0
-165 48 0
-165 32 0
-165 61 0
-165 98 0
-165 3 0
-165 -24 0
-165 34 0
-165 44 0
-165 15 0
165 51 -48 -32 -61 -98 -3 24 -34 -44 -15 0
-166 19 0
-166 -48 0
-166 54 0
-166 -88 0
-166 -10 0
-166 -73 0
-166 80 0
-166 -15 0
-166 -99 0
-166 -43 0
166 -19 48 -54 88 10 73 -80 15 99 43 0
-167 27 0
-167 38 0
-167 -3 0
-167 -5 0
-167 19 0
-167 -85 0
-167 64 0
-167 80 0
-167 -50 0
-167 6 0
167 -27 -38 3 5 -19 85 -64 -80 50 -6 0
-168 43 0
-168 27 0
-168 -26 0
-168 97 0
-168 -67 0
-168 82 0
-168 -58 0
-168 -85 0
-168 -35 0
-168 -54 0
168 -43 -27 26 -97 67 -82 58 85 35 54 0
-169 77 0
-169 -49 0
-169 -72 0
-169 67 0
-169 26 0
-169 -12 0
-169 -5 0
-169 48 0
-169 -17 0
-169 20 0
169 -77 49 72 -67 -26 12 5 -48 17 -20 0
-170 16 0
-170 -34 0
-170 -60 0
-170 62 0
-170 55 0
-170 9 0
-170 54 0
-170 -12 0
-170 -7 0
-170 -57 0
170 -16 34 60 -62 -55 -9 -54 12 7 57 0
161 162 163 164 165 166 167 168 169 170 0
-171 45 0
-171 -41 0
-171 87 0
-171 -38 0
-171 -57 0
-171 -2 0
-171 100 0
-171 17 0
-171 -91 0
-171 47 0
171 -45 41 -87 38 57 2 -100 -17 91 -47 0
-172 -94 0
-172 79 0
-172 98 0
-172 -13 0
-172 -54 0
-172 57 0
-172 -61 0
-172 8 0
-172 63 0
-172 -14 0
172 94 -79 -98 13 54 -57 61 -8 -63 14 0
-173 2 0
-173 -19 0
-173 1 0
-173 -96 0
-173 -28 0
-173 29 0
-173 7 0
-173 52 0
-173 -54 0
-173 -93 0
173 -2 19 -1 96 28 -29 -7 -52 54 93 0
-174 -6 0
-174 69 0
-174 4 0
-174 -62 0
-174 -11 0
-174 45 0
-174 -88 0
-174 -55 0
-174 80 0
-174 22 0
174 6 -69 -4 62 11 -45 88 55 -80 -22 0
-175 -58 0
-175 -15 0
-175 98 0
-175 -30 0
-175 -23 0
-175 -6 0
-175 88 0
-175 -95 0
-175 83 0
-175 62 0
175 58 15 -98 30 23 6 -88 95 -83 -62 0
-176 74 0
-176 75 0
-176 -14 0
-176 -50 0
-176 -10 0
-176 12 0
-176 94 0
-176 -78 0
-176 -59 0
-176 -40 0
176 -74 -75 14 50 10 -12 -94 78 59 40 0
-177 78 0
-177 92 0
-177 96 0
-177 10 0
-177 60 0
-177 40 0
-177 33 0
-177 -27 0
-177 -24 0
-177 -45 0
177 -78 -92 -96 -10 -60 -40 -33 27 24 45 0
-178 -38 0
-178 -70 0
-178 -66 0
-178 -29 0
-178 -33 0
-178 -31 0
-178 -99 0
-178 80 0
-178 -3 0
-178 59 0
178 38 70 66 29 33 31 99 -80 3 -59 0
-179 -37 0
-179 61 0
-179 51 0
-179 -62 0
-179 2 0
-179 27 0
-179 -46 0
-179 -59 0
-179 -8 0
-179 -41 0
179 37 -61 -51 62 -2 -27 46 59 8 41 0
-180 -5 0
-180 -28 0
-180 11 0
-180 -65 0
-180 -89 0
-180 -26 0
-180 92 0
-180 -96 0
-180 33 0
-180 -68 0
180 5 28 -11 65 89 26 -92 96 -33 68 0
171 172 173 174 175 176 177 178 179 180 0
-181 -50 0
-181 65 0
-181 68 0
-181 -3 0
-181 -47 0
-181 -64 0
-181 73 0
-181 1 0
-181 7 0
-181 -66 0
181 50 -65 -68 3 47 64 -73 -1 -7 66 0
-182 43 0
-182 53 0
-182 -96 0
-182 76 0
-182 -48 0
-182 -36 0
-182 16 0
-182 95 0
-182 52 0
-182 -33 0
182 -43 -53 96 -76 48 36 -16 -95 -52 33 0
-183 -71 0
-183 -35 0
-183 68 0
-183 51 0
-183 47 0
-183 -32 0
-183 65 0
-183 -45 0
-183 14 0
-183 -40 0
183 71 35 -68 -51 -47 32 -65 45 -14 40 0
-184 -97 0
-184 49 0
-184 43 0
-184 -26 0
-184 22 0
-184 33 0
-184 69 0
-184 80 0
-184 45 0
-184 -86 0
184 97 -49 -43 26 -22 -33 -69 -80 -45 86 0
-185 -30 0
-185 -48 0
-185 60 0
-185 -65 0
-185 45 0
-185 19 0
-185 -79 0
-185 -68 0
-185 96 0
-185 -40 0
185 30 48 -60 65 -45 -19 79 68 -96 40 0
-186 -50 0
-186 -78 0
-186 70 0
-186 67 0
-186 48 0
-186 -64 0
-186 24 0
-186 -86 0
-186 -93 0
-186 -59 0
186 50 78 -70 -67 -48 64 -24 86 93 59 0
-187 -84 0
-187 -53 0
-187 81 0
-187 40 0
-187 69 0
-187 -15 0
-187 -91 0
-187 -27 0
-187 4 0
-187 90 0
187 84 53 -81 -40 -69 15 91 27 -4 -90 0
-188 54 0
-188 35 0
-188 -2 0
-188 -71 0
-188 -6 0
-188 -36 0
-188 -58 0
-188 79 0
-188 -40 0
-188 -43 0
188 -54 -35 2 71 6 36 58 -79 40 43 0
-189 -67 0
-189 -94 0
-189 45 0
-189 -85 0
-189 -64 0
-189 -27 0
-189 63 0
-189 47 0
-189 -38 0
-189 10 0
189 67 94 -45 85 64 27 -63 -47 38 -10 0
-190 -35 0
-190 -20 0
-190 69 0
-190 -24 0
-190 23 0
-190 -99 0
-190 -87 0
-190 -6 0
-190 -85 0
-190 -68 0
190 35 20 -69 24 -23 99 87 6 85 68 0
181 182 183 184 185 186 187 188 189 190 0
-191 -49 0
-191 -98 0
-191 16 0
-191 14 0
-191 61 0
-191 81 0
-191 41 0
-191 -34 0
-191 2 0
-191 94 0
191 49 98 -16 -14 -61 -81 -41 34 -2 -94 0
-192 67 0
-192 76 0
-192 -78 0
-192 -31 0
-192 -26 0
-192 -80 0
-192 24 0
-192 -40 0
-192 -51 0
-192 -90 0
192 -67 -76 78 31 26 80 -24 40 51 90 0
-193 -51 0
-193 -47 0
-193 -17 0
-193 99 0
-193 -25 0
-193 55 0
-193 -100 0
-193 -36 0
-193 74 0
-193 -88 0
193 51 47 17 -99 25 -55 100 36 -74 88 0
-194 -7 0
-194 78 0
-194 6 0
-194 49 0
-194 94 0
-194 84 0
-194 -33 0
-194 8 0
-194 -4 0
-194 -39 0
194 7 -78 -6 -49 -94 -84 33 -8 4 39 0
-195 -6 0
-195 93 0
-195 82 0
-195 -26 0
-195 47 0
-195 42 0
-195 10 0
-195 29 0
-195 46 0
-195 8 0
195 6 -93 -82 26 -47 -42 -10 -29 -46 -8 0
-196 -17 0
-196 66 0
-196 75 0
-196 -8 0
-196 48 0
-196 34 0
-196 40 0
-196 -90 0
-196 98 0
-196 -92 0
196 17 -66 -75 8 -48 -34 -40 90 -98 92 0
-197 -3 0
-197 9 0
-197 -44 0
-197 83 0
-197 2 0
-197 61 0
-197 19 0
-197 30 0
-197 -54 0
-197 -23 0
197 3 -9 44 -83 -2 -61 -19 -30 54 23 0
-198 -21 0
-198 -66 0
-198 34 0
-198 -96 0
-198 76 0
-198 35 0
-198 -24 0
-198 -86 0
-198 80 0
-198 41 0
198 21 66 -34 96 -76 -35 24 86 -80 -41 0
-199 61 0
-199 80 0
-199 -33 0
-199 -37 0
-199 -12 0
-199 -78 0
-199 70 0
-199 1 0
-199 -94 0
-199 -10 0
199 -61 -80 33 37 12 78 -70 -1 94 10 0
-200 59 0
-200 79 0
-200 20 0
-200 -4 0
-200 -87 0
-200 -18 0
-200 -43 0
-200 -6 0
-200 -46 0
-200 51 0
200 -59 -79 -20 4 87 18 43 6 46 -51 0
191 192 193 194 195 196 197 198 199 200 0
